(declare-const X String)
; comLOGUser-Agent\x3Aistsvcwww\x2Eoemji\x2EcomSystemSleuth
(assert (str.in_re X (str.to_re "comLOGUser-Agent:istsvcwww.oemji.comSystemSleuth\u{13}\u{a}")))
; are\d+Version\d+JMailBoxHostGENERAL_PARAM2
(assert (str.in_re X (re.++ (str.to_re "are") (re.+ (re.range "0" "9")) (str.to_re "Version") (re.+ (re.range "0" "9")) (str.to_re "JMailBoxHostGENERAL_PARAM2\u{a}"))))
; /\xF6\xEC\xD9\xB3\x67\xCF\x9E\x3D\x7B(\xF6\xEC\xD9\xB3\x67\xCF\x9E\x3D\x7B){500}/m
(assert (not (str.in_re X (re.++ (str.to_re "/\u{f6}\u{ec}\u{d9}\u{b3}g\u{cf}\u{9e}={") ((_ re.loop 500 500) (str.to_re "\u{f6}\u{ec}\u{d9}\u{b3}g\u{cf}\u{9e}={")) (str.to_re "/m\u{a}")))))
; <textarea(.|\n)*?>((.|\n)*?)</textarea>
(assert (not (str.in_re X (re.++ (str.to_re "<textarea") (re.* (re.union re.allchar (str.to_re "\u{a}"))) (str.to_re ">") (re.* (re.union re.allchar (str.to_re "\u{a}"))) (str.to_re "</textarea>\u{a}")))))
; <[ \t]*[iI][mM][gG][ \t]*[sS][rR][cC][ \t]*=[ \t]*['\"]([^'\"]+)
(assert (not (str.in_re X (re.++ (str.to_re "<") (re.* (re.union (str.to_re " ") (str.to_re "\u{9}"))) (re.union (str.to_re "i") (str.to_re "I")) (re.union (str.to_re "m") (str.to_re "M")) (re.union (str.to_re "g") (str.to_re "G")) (re.* (re.union (str.to_re " ") (str.to_re "\u{9}"))) (re.union (str.to_re "s") (str.to_re "S")) (re.union (str.to_re "r") (str.to_re "R")) (re.union (str.to_re "c") (str.to_re "C")) (re.* (re.union (str.to_re " ") (str.to_re "\u{9}"))) (str.to_re "=") (re.* (re.union (str.to_re " ") (str.to_re "\u{9}"))) (re.union (str.to_re "'") (str.to_re "\u{22}")) (re.+ (re.union (str.to_re "'") (str.to_re "\u{22}"))) (str.to_re "\u{a}")))))
(check-sat)
